10000 100
24063 50594 25914 45658 27765 25297 24680 617 9255 8638 37020 14808 26531 32701 41339 22829 53679 53679 51211 12340 14808 27765 20361 59232 57381 2468 9255 27765 18510 12957 27765 25914 22212 4936 58615 9872 24063 50594 15425 27148 18510 61700 53062 14808 56147 21595 25914 54296 30233 54913 12957 37637 8021 16659 11723 40105 52445 45041 1234 17276 32701 13574 49360 30233 3085 28999 35786 14191 12957 617 42573 26531 17276 30850 38871 4936 23446 57381 4319 12957 56147 22829 61700 37637 51211 27765 15425 25297 22829 51211 56764 5553 36403 8021 22829 25914 58615 14191 51211 24063 
